StringID Type x y demand ReadyTime DueDate ServiceTime
D0 d 0 0 0 0 300 0
C1 c 5 0 2 0 80 5
C2 c 10 0 2 10 100 5
C3 c 15 0 2 20 120 5
C4 c 20 0 2 30 140 5
C5 c 0 5 2 0 80 5
C6 c 0 10 2 10 100 5
C7 c 0 15 2 20 120 5
C8 c 0 20 2 30 140 5

Q / 100000 /
C / 8 /
r / 1 /
g / 0 /
v / 1 /

